peakDumbCharging = 11100; 
Machine = anon_enum(16); 
machineSpeed = [3700,3700,3700,3700,3700,3700,3700,3700,3700,3700,3700,3700,3700,3700,3700,3700]; 
machineLoad = [3700,3700,3700,3700,3700,3700,3700,3700,3700,3700,3700,3700,3700,3700,3700,3700]; 
Car = anon_enum(9); 
demandCar = [26800,160,4280,5640,13640,13160,24640,33000,29480]; 
arrivalCar = [72,72,71,68,65,58,54,32,32]; 
departureCar = [81,80,73,71,72,66,66,43,42]; 
